0 27 9 22 45 36 8 43 16 33
27 0 6 11 36 46 2 10 30 31
9 6 0 23 10 28 44 8 49 34
22 11 23 0 11 24 22 26 39 41
45 36 10 11 0 44 15 34 43 16
36 46 28 24 44 0 16 9 21 9
8 2 44 22 15 16 0 11 37 32
43 10 8 26 34 9 11 0 9 22
16 30 49 39 43 21 37 9 0 9
33 31 34 41 16 9 32 22 9 0
